============================[ Problem Statistics ]=============================|                                                                             ||  Number of variables:          4242                                         ||  Number of clauses:           10168                                         ||  Parse time:                   0.56 s                                       ||                                                                             |============================[ Search Statistics ]==============================| Conflicts |          ORIGINAL         |          LEARNT          | Progress ||           |    Vars  Clauses Literals |    Limit  Clauses Lit/Cl |          |===============================================================================|       100 |    1591     6373   886844 |     2336      100     53 | 62.501 % ||       250 |    1591     6373   886844 |     2570      250     75 | 62.495 % |===============================================================================restarts              : 3conflicts             : 308            (367 /sec)decisions             : 573            (0.00 % random) (682 /sec)propagations          : 11869          (14130 /sec)conflict literals     : 24427          (94.72 % deleted)CPU time              : 0.84 sSATISFIABLE